(declare-fun temp480_2 () (_ BitVec 64))
(declare-fun temp480_1 () (_ BitVec 64))
(declare-fun temp480_4 () (_ BitVec 64))
(declare-fun temp480_3 () (_ BitVec 64))
(declare-fun temp480_6 () (_ BitVec 64))
(declare-fun temp480_5 () (_ BitVec 64))
(declare-fun temp480_8 () (_ BitVec 64))
(declare-fun temp480_7 () (_ BitVec 64))
(declare-fun temp480_9 () (_ BitVec 64))
(declare-fun var2174808 () (_ BitVec 64))
(declare-fun var2174932 () (_ BitVec 64))
(declare-fun temp480_11 () (_ BitVec 64))
(declare-fun temp480_10 () (_ BitVec 64))
(declare-fun temp480_13 () (_ BitVec 64))
(declare-fun temp480_12 () (_ BitVec 64))
(declare-fun temp480_15 () (_ BitVec 64))
(declare-fun temp480_14 () (_ BitVec 64))
(declare-fun temp480_17 () (_ BitVec 64))
(declare-fun temp480_16 () (_ BitVec 64))
(declare-fun temp480_18 () (_ BitVec 64))
(declare-fun var5189464 () (_ BitVec 64))
(declare-fun var5189588 () (_ BitVec 64))
(declare-fun temp480_20 () (_ BitVec 64))
(declare-fun temp480_19 () (_ BitVec 64))
(declare-fun temp480_22 () (_ BitVec 64))
(declare-fun temp480_21 () (_ BitVec 64))
(declare-fun temp480_24 () (_ BitVec 64))
(declare-fun temp480_23 () (_ BitVec 64))
(declare-fun temp480_26 () (_ BitVec 64))
(declare-fun temp480_25 () (_ BitVec 64))
(declare-fun temp480_28 () (_ BitVec 64))
(declare-fun temp480_27 () (_ BitVec 64))
(declare-fun temp480_29 () (_ BitVec 64))
(declare-fun var8204120 () (_ BitVec 64))
(declare-fun var8204244 () (_ BitVec 64))
(declare-fun temp480_31 () (_ BitVec 64))
(declare-fun temp480_30 () (_ BitVec 64))
(declare-fun var2175221 () (_ BitVec 64))
(declare-fun temp480_32 () (_ BitVec 64))
(declare-fun var2175222 () (_ BitVec 64))
(declare-fun temp480_33 () (_ BitVec 64))
(assert (= temp480_2 #x0000000000000000))
(assert (= temp480_1 temp480_2))
(assert (= temp480_4 #x0000000000000001))
(assert (= temp480_3 temp480_4))
(assert (= temp480_6 #x0000000000000000))
(assert (= temp480_5 temp480_6))
(assert (= temp480_8 #x0000000000000001))
(assert (= temp480_7 temp480_8))
(assert (= temp480_9 #x0000000000000000))
(assert (= var2174808 temp480_9))
(assert (= var2174932 var2174808))
(assert (= temp480_11 #x0000000000000000))
(assert (= temp480_10 temp480_11))
(assert (= temp480_13 #x0000000000000001))
(assert (= temp480_12 temp480_13))
(assert (= temp480_15 #x0000000000000000))
(assert (= temp480_14 temp480_15))
(assert (= temp480_17 #x0000000000000001))
(assert (= temp480_16 temp480_17))
(assert (= temp480_18 #x0000000000000000))
(assert (= var5189464 temp480_18))
(assert (= var5189588 var5189464))
(assert (= temp480_20 #x0000000000000001))
(assert (= temp480_19 temp480_20))
(assert (= temp480_22 #x0000000000000000))
(assert (= temp480_21 temp480_22))
(assert (= temp480_24 #x0000000000000001))
(assert (= temp480_23 temp480_24))
(assert (= temp480_26 #x0000000000000000))
(assert (= temp480_25 temp480_26))
(assert (= temp480_28 #x0000000000000001))
(assert (= temp480_27 temp480_28))
(assert (= temp480_29 #x0000000000000000))
(assert (= var8204120 temp480_29))
(assert (= var8204244 var8204120))
(assert (= temp480_31 #x0000000000000001))
(assert (= temp480_30 temp480_31))
(assert (= var2175221 var2174932))
(assert (= temp480_32 #x0000000000000000))
(assert (= var2175222
   (ite (= var2175221 temp480_32) #x0000000000000001 #x0000000000000000)))
(assert (= temp480_33 #x0000000000000001))
(assert (= var2175222 temp480_33))
(model-add temp480_2 () (_ BitVec 64) #x0000000000000000)
(model-add temp480_1 () (_ BitVec 64) #x0000000000000000)
(model-add temp480_4 () (_ BitVec 64) #x0000000000000001)
(model-add temp480_3 () (_ BitVec 64) #x0000000000000001)
(model-add temp480_6 () (_ BitVec 64) #x0000000000000000)
(model-add temp480_5 () (_ BitVec 64) #x0000000000000000)
(model-add temp480_8 () (_ BitVec 64) #x0000000000000001)
(model-add temp480_7 () (_ BitVec 64) #x0000000000000001)
(model-add temp480_9 () (_ BitVec 64) #x0000000000000000)
(model-add var2174808 () (_ BitVec 64) #x0000000000000000)
(model-add var2174932 () (_ BitVec 64) #x0000000000000000)
(model-add temp480_11 () (_ BitVec 64) #x0000000000000000)
(model-add temp480_10 () (_ BitVec 64) #x0000000000000000)
(model-add temp480_13 () (_ BitVec 64) #x0000000000000001)
(model-add temp480_12 () (_ BitVec 64) #x0000000000000001)
(model-add temp480_15 () (_ BitVec 64) #x0000000000000000)
(model-add temp480_14 () (_ BitVec 64) #x0000000000000000)
(model-add temp480_17 () (_ BitVec 64) #x0000000000000001)
(model-add temp480_16 () (_ BitVec 64) #x0000000000000001)
(model-add temp480_18 () (_ BitVec 64) #x0000000000000000)
(model-add var5189464 () (_ BitVec 64) #x0000000000000000)
(model-add var5189588 () (_ BitVec 64) #x0000000000000000)
(model-add temp480_20 () (_ BitVec 64) #x0000000000000001)
(model-add temp480_19 () (_ BitVec 64) #x0000000000000001)
(model-add temp480_22 () (_ BitVec 64) #x0000000000000000)
(model-add temp480_21 () (_ BitVec 64) #x0000000000000000)
(model-add temp480_24 () (_ BitVec 64) #x0000000000000001)
(model-add temp480_23 () (_ BitVec 64) #x0000000000000001)
(model-add temp480_26 () (_ BitVec 64) #x0000000000000000)
(model-add temp480_25 () (_ BitVec 64) #x0000000000000000)
(model-add temp480_28 () (_ BitVec 64) #x0000000000000001)
(model-add temp480_27 () (_ BitVec 64) #x0000000000000001)
(model-add temp480_29 () (_ BitVec 64) #x0000000000000000)
(model-add var8204120 () (_ BitVec 64) #x0000000000000000)
(model-add var8204244 () (_ BitVec 64) #x0000000000000000)
(model-add temp480_31 () (_ BitVec 64) #x0000000000000001)
(model-add temp480_30 () (_ BitVec 64) #x0000000000000001)
(model-add var2175221 () (_ BitVec 64) #x0000000000000000)
(model-add temp480_32 () (_ BitVec 64) #x0000000000000000)
(model-add var2175222 () (_ BitVec 64) #x0000000000000001)
(model-add temp480_33 () (_ BitVec 64) #x0000000000000001)





